c generated by sgen
p cnf 65 140
-2 -3 -4 0
-1 -3 -4 0
-1 -2 -4 0
-1 -2 -3 0
-6 -7 -8 0
-5 -7 -8 0
-5 -6 -8 0
-5 -6 -7 0
-10 -11 -12 0
-9 -11 -12 0
-9 -10 -12 0
-9 -10 -11 0
-14 -15 -16 0
-13 -15 -16 0
-13 -14 -16 0
-13 -14 -15 0
-18 -19 -20 0
-17 -19 -20 0
-17 -18 -20 0
-17 -18 -19 0
-22 -23 -24 0
-21 -23 -24 0
-21 -22 -24 0
-21 -22 -23 0
-26 -27 -28 0
-25 -27 -28 0
-25 -26 -28 0
-25 -26 -27 0
-30 -31 -32 0
-29 -31 -32 0
-29 -30 -32 0
-29 -30 -31 0
-34 -35 -36 0
-33 -35 -36 0
-33 -34 -36 0
-33 -34 -35 0
-38 -39 -40 0
-37 -39 -40 0
-37 -38 -40 0
-37 -38 -39 0
-42 -43 -44 0
-41 -43 -44 0
-41 -42 -44 0
-41 -42 -43 0
-46 -47 -48 0
-45 -47 -48 0
-45 -46 -48 0
-45 -46 -47 0
-50 -51 -52 0
-49 -51 -52 0
-49 -50 -52 0
-49 -50 -51 0
-54 -55 -56 0
-53 -55 -56 0
-53 -54 -56 0
-53 -54 -55 0
-58 -59 -60 0
-57 -59 -60 0
-57 -58 -60 0
-57 -58 -59 0
-61 -62 -63 0
-61 -62 -64 0
-61 -62 -65 0
-61 -63 -64 0
-61 -63 -65 0
-61 -64 -65 0
-62 -63 -64 0
-62 -63 -65 0
-62 -64 -65 0
-63 -64 -65 0
24 18 39 0
60 18 39 0
60 24 39 0
60 24 18 0
17 10 28 0
45 10 28 0
45 17 28 0
45 17 10 0
4 19 55 0
14 19 55 0
14 4 55 0
14 4 19 0
20 34 30 0
50 34 30 0
50 20 30 0
50 20 34 0
48 51 58 0
29 51 58 0
29 48 58 0
29 48 51 0
12 21 3 0
52 21 3 0
52 12 3 0
52 12 21 0
54 25 8 0
23 25 8 0
23 54 8 0
23 54 25 0
46 15 35 0
37 15 35 0
37 46 35 0
37 46 15 0
26 36 57 0
64 36 57 0
64 26 57 0
64 26 36 0
56 33 43 0
49 33 43 0
49 56 43 0
49 56 33 0
53 11 40 0
62 11 40 0
62 53 40 0
62 53 11 0
65 32 6 0
13 32 6 0
13 65 6 0
13 65 32 0
22 63 44 0
16 63 44 0
16 22 44 0
16 22 63 0
9 59 41 0
5 59 41 0
5 9 41 0
5 9 59 0
47 61 7 0
1 61 7 0
1 47 7 0
1 47 61 0
2 42 31 0
2 42 27 0
2 42 38 0
2 31 27 0
2 31 38 0
2 27 38 0
42 31 27 0
42 31 38 0
42 27 38 0
31 27 38 0
